[2026-03-24T00:47:04.678Z] Pipeline "set_prova_set_prova_set_s008_g003" → 2026_03_24_00_47_04_set_prova_set_prova_set_s008_g003_max.sol
Set parameter WLSAccessID
Set parameter WLSSecret
Set parameter LicenseID to value 2792458
Set parameter LogFile to value "gurobi.log"
Using license file /root/gurobi.lic
Academic license 2792458 - for non-commercial use only - registered to an___@studenti.unipg.it

Gurobi Optimizer version 13.0.1 build v13.0.1rc0 (linux64 - "Ubuntu 24.04.4 LTS")
Copyright (c) 2026, Gurobi Optimization, LLC

Warning: Duplicate section found (read 'binary') - Is a variable name equal to an LP file format keyword?
Warning: Duplicate section found (read 'binary') - Is a variable name equal to an LP file format keyword?
Warning: Duplicate section found (read 'binary') - Is a variable name equal to an LP file format keyword?
Warning: Duplicate section found (read 'binary') - Is a variable name equal to an LP file format keyword?
Warning: Duplicate section found (read 'binary') - Is a variable name equal to an LP file format keyword?
Warning: Duplicate section found (read 'binary') - Is a variable name equal to an LP file format keyword?
Warning: Duplicate section found (read 'binary') - Is a variable name equal to an LP file format keyword?
Warning: Duplicate section found (read 'binary') - Is a variable name equal to an LP file format keyword?
Warning: Duplicate section found (read 'binary') - Is a variable name equal to an LP file format keyword?
Warning: Duplicate section found (read 'binary') - Is a variable name equal to an LP file format keyword?
Warning: Further warnings of this type will be omitted.
Read LP format model from file /root/bgw/data/uploads/2026_03_24_00_47_04_set_prova_set_prova_set_s008_g003_max.lp
Reading time = 0.01 seconds
: 3997 rows, 363 columns, 12057 nonzeros

Using Gurobi shared library /opt/gurobi1301/linux64/lib/libgurobi.so.13.0.1

CPU model: AMD EPYC-Genoa Processor, instruction set [SSE2|AVX|AVX2|AVX512]
Thread count: 16 physical cores, 16 logical processors, using up to 16 threads

Academic license 2792458 - for non-commercial use only - registered to an___@studenti.unipg.it
Optimize a model with 3997 rows, 363 columns and 12057 nonzeros (Max)
Model fingerprint: 0xe07c9f74
Model has 16 linear objective coefficients
Variable types: 39 continuous, 324 integer (324 binary)
Coefficient statistics:
  Matrix range     [1e+00, 2e+01]
  Objective range  [1e+00, 1e+00]
  Bounds range     [1e+00, 1e+00]
  RHS range        [1e+00, 3e+01]

Found heuristic solution: objective 16.0000000
Presolve removed 397 rows and 75 columns
Presolve time: 0.02s
Presolved: 3600 rows, 288 columns, 11040 nonzeros
Variable types: 0 continuous, 288 integer (276 binary)
Found heuristic solution: objective 20.0000000

Root relaxation: objective 7.000000e+01, 551 iterations, 0.04 seconds (0.04 work units)

    Nodes    |    Current Node    |     Objective Bounds      |     Work
 Expl Unexpl |  Obj  Depth IntInf | Incumbent    BestBd   Gap | It/Node Time

     0     0   70.00000    0   79   20.00000   70.00000   250%     -    0s
H    0     0                      23.0000000   70.00000   204%     -    0s
H    0     0                      30.0000000   70.00000   133%     -    0s
H    0     0                      31.0000000   70.00000   126%     -    0s
H    0     0                      33.0000000   70.00000   112%     -    0s
     0     0   70.00000    0   75   33.00000   70.00000   112%     -    0s
     0     0   70.00000    0   80   33.00000   70.00000   112%     -    0s
     0     0   70.00000    0   80   33.00000   70.00000   112%     -    0s
     0     0   70.00000    0   64   33.00000   70.00000   112%     -    0s
H    0     0                      35.0000000   70.00000   100%     -    0s
     0     0   70.00000    0   64   35.00000   70.00000   100%     -    0s
     0     0   70.00000    0   64   35.00000   70.00000   100%     -    0s
H    0     0                      37.0000000   70.00000  89.2%     -    0s
     0     0   70.00000    0   72   37.00000   70.00000  89.2%     -    0s
     0     0   70.00000    0   71   37.00000   70.00000  89.2%     -    0s
H    0     0                      38.0000000   70.00000  84.2%     -    0s
H    0     0                      40.0000000   70.00000  75.0%     -    0s
     0     0   70.00000    0   74   40.00000   70.00000  75.0%     -    0s
     0     0   70.00000    0   71   40.00000   70.00000  75.0%     -    0s
     0     0   70.00000    0   71   40.00000   70.00000  75.0%     -    0s
     0     0   70.00000    0   69   40.00000   70.00000  75.0%     -    0s
     0     0   70.00000    0   68   40.00000   70.00000  75.0%     -    0s
     0     0   70.00000    0   68   40.00000   70.00000  75.0%     -    0s
     0     0   70.00000    0   68   40.00000   70.00000  75.0%     -    0s
     0     0   70.00000    0   68   40.00000   70.00000  75.0%     -    0s
     0     2   70.00000    0   68   40.00000   70.00000  75.0%     -    0s
H 1927   935                      41.0000000   69.15528  68.7%   115    2s
H 3824  1521                      43.0000000   66.86508  55.5%   144    4s
  3826  1522   47.77778   18   73   43.00000   66.86508  55.5%   144    5s
  9676   682   45.96190   26   87   43.00000   50.71429  17.9%   129   10s

Cutting planes:
  Inf proof: 7

Explored 14063 nodes (1824837 simplex iterations) in 12.07 seconds (22.58 work units)
Thread count was 16 (of 16 available processors)

Solution count 10: 43 41 41 ... 33

Optimal solution found (tolerance 1.00e-04)
Best objective 4.300000000000e+01, best bound 4.300000000000e+01, gap 0.0000%

Wrote result file '/root/bgw/data/results/2026_03_24_00_47_04_set_prova_set_prova_set_s008_g003_max.sol'

